p wcnf 18 60 30
30 1 8 12 13 16 0
30 -1 -8 0
30 -1 -12 0
30 -1 -13 0
30 -1 -16 0
30 -8 -12 0
30 -8 -13 0
30 -8 -16 0
30 -12 -13 0
30 -12 -16 0
30 -13 -16 0
30 2 6 10 15 18 0
30 -2 -6 0
30 -2 -10 0
30 -2 -15 0
30 -2 -18 0
30 -6 -10 0
30 -6 -15 0
30 -6 -18 0
30 -10 -15 0
30 -10 -18 0
30 -15 -18 0
30 3 7 14 17 0
30 -3 -7 0
30 -3 -14 0
30 -3 -17 0
30 -7 -14 0
30 -7 -17 0
30 -14 -17 0
30 4 5 9 11 0
30 -4 -5 0
30 -4 -9 0
30 -4 -11 0
30 -5 -9 0
30 -5 -11 0
30 -9 -11 0
10 3 4 0
30 -3 -4 0
9 1 2 0
30 -1 -2 0
8 9 10 0
30 -9 -10 0
7 7 8 0
30 -7 -8 0
6 17 18 0
30 -17 -18 0
5 1 0
5 7 0
5 13 0
5 15 0
4 3 0
4 8 0
4 11 0
4 18 0
5 -2 0
5 -5 0
5 -10 0
5 -12 0
4 -16 0
4 -17 0
